NAME : instance_17_600
TYPE : TSP
DIMENSION : 17
EDGE_WEIGHT_TYPE : EUC_2D
LOWER : 0
UPPER : 100
NODE_COORD_SECTION
1 50.8826220641 56.5502677113
2 1.3840154046 39.9952070089
3 80.0786494045 11.7705195211
4 64.6690300666 68.1346965954
5 44.9075716082 37.5885034679
6 71.0260826163 14.2560280394
7 28.9765578462 39.0406947117
8 31.4015544951 15.7011557603
9 88.3753544651 11.4495331654
10 51.8267830135 70.4224032117
11 42.761963862 42.5405655522
12 9.3426733743 95.1253752457
13 15.9241088433 64.4666644046
14 52.5751211448 7.7345762169
15 66.0877699731 9.0077710338
16 9.4285356579 79.2255072622
17 9.301708499 14.8200944765
EOF
